c turning on binary mode checking
c parsing input formula with 259840 variables and 1039924 clauses
c finished parsing, read 2791344 bytes from proof file
c detected empty clause; start verification via backward checking
c 5994 of 1039924 clauses in core                            
c 1803 of 114770 lemmas in core using 59058 resolution steps
c 0 RAT lemmas in core; 271 redundant literals in core lemmas
s VERIFIED
c verification time: 1.407 seconds
